************************************************************************
file with basedata            : j9041_.bas
initial value random generator: 1841474110
************************************************************************
projects                      :  1
jobs (incl. supersource/sink ):  92
horizon                       :  468
RESOURCES
  - renewable                 :  4   R
  - nonrenewable              :  0   N
  - doubly constrained        :  0   D
************************************************************************
PROJECT INFORMATION:
pronr.  #jobs rel.date duedate tardcost  MPM-Time
    1     90      0       89       18       89
************************************************************************
PRECEDENCE RELATIONS:
jobnr.    #modes  #successors   successors
   1        1          3           2   3   4
   2        1          3           5   8   9
   3        1          3          16  62  66
   4        1          3           6  12  15
   5        1          3           7  13  53
   6        1          3          28  43  44
   7        1          3          11  21  24
   8        1          3          10  58  68
   9        1          3          22  32  36
  10        1          3          41  43  77
  11        1          3          14  18  19
  12        1          3          20  34  39
  13        1          3          23  49  71
  14        1          3          32  40  64
  15        1          2          17  21
  16        1          3          24  26  38
  17        1          3          40  43  48
  18        1          3          25  30  35
  19        1          3          33  35  64
  20        1          2          21  27
  21        1          3          41  47  57
  22        1          3          55  56  85
  23        1          3          31  48  54
  24        1          3          58  61  86
  25        1          2          33  54
  26        1          3          45  57  63
  27        1          1          38
  28        1          3          29  40  42
  29        1          3          50  58  61
  30        1          3          37  39  51
  31        1          2          83  86
  32        1          1          42
  33        1          2          34  45
  34        1          3          38  67  82
  35        1          3          37  59  74
  36        1          3          46  47  52
  37        1          2          46  80
  38        1          1          73
  39        1          3          48  49  67
  40        1          1          71
  41        1          3          42  79  81
  42        1          1          73
  43        1          3          52  63  70
  44        1          3          47  53  69
  45        1          1          69
  46        1          2          56  88
  47        1          3          68  70  76
  48        1          1          61
  49        1          3          62  66  88
  50        1          3          51  59  81
  51        1          1          72
  52        1          1          72
  53        1          3          54  59  79
  54        1          1          57
  55        1          1          71
  56        1          3          60  66  68
  57        1          3          60  76  86
  58        1          2          63  64
  59        1          3          60  62  85
  60        1          1          65
  61        1          2          75  80
  62        1          2          65  82
  63        1          1          67
  64        1          3          65  69  70
  65        1          1          89
  66        1          2          75  82
  67        1          2          72  89
  68        1          2          73  75
  69        1          2          84  91
  70        1          2          74  84
  71        1          2          74  77
  72        1          3          76  78  80
  73        1          1          89
  74        1          1          78
  75        1          2          77  81
  76        1          1          87
  77        1          3          78  79  87
  78        1          1          91
  79        1          1          83
  80        1          1          84
  81        1          1          83
  82        1          1          91
  83        1          1          90
  84        1          1          85
  85        1          1          88
  86        1          1          87
  87        1          1          90
  88        1          1          90
  89        1          1          92
  90        1          1          92
  91        1          1          92
  92        1          0        
************************************************************************
REQUESTS/DURATIONS:
jobnr. mode duration  R 1  R 2  R 3  R 4
------------------------------------------------------------------------
  1      1     0       0    0    0    0
  2      1     4       6    0    7    0
  3      1     7       8    2    0    3
  4      1     5       0    5    9    0
  5      1     5       3    1    8    8
  6      1     1       0    0   10    1
  7      1     7      10    3    0    0
  8      1     9       5    6    0    1
  9      1     3       0   10    4    4
 10      1     1       2    9    7    8
 11      1     8       3   10    4    0
 12      1     2       1    0    2    5
 13      1     9       3    0    4    0
 14      1     8       1    1   10    1
 15      1     2       8    0    3    1
 16      1     5       0    0    3    6
 17      1     5       0    8    4    8
 18      1     6       0    6    2    0
 19      1     9       4    7    0    0
 20      1     8       5    9    2    0
 21      1     7       8    2    4    0
 22      1     3       2    9    3    5
 23      1     9      10    0    3    1
 24      1     8       7   10    0    1
 25      1     1       4    3    6    8
 26      1     7       0    5    7    9
 27      1     4       0    8    8    0
 28      1     2       0    7    0    3
 29      1     6       0    0    0   10
 30      1     4       0    6    6    8
 31      1     4       7    8    6    2
 32      1     9       6    0    5    0
 33      1     7       8    7    0   10
 34      1     2       0    0   10    6
 35      1     7       5    7    2    0
 36      1     2       0   10    7    1
 37      1     4       2    2    2    6
 38      1     3       2    7    0    5
 39      1     5       1    2    3    1
 40      1     1       3    1    5    7
 41      1     2       4    0    1    5
 42      1     3       7    9    0    9
 43      1     4       7    0    0    7
 44      1     3       3    5    9   10
 45      1     1       5    2    6    0
 46      1     5       0    2    0    3
 47      1     9       0    6    8    9
 48      1     1       2    2    0    1
 49      1     8       0    6    5    7
 50      1     9       1    8    0    1
 51      1     1       0    7    4    7
 52      1    10       2    0    0    7
 53      1     6       6    5    6    0
 54      1     4       0   10    3    8
 55      1     8       0    2    2    4
 56      1     1       1    1    1    0
 57      1     5       3    0   10    3
 58      1    10      10    2    0    7
 59      1     1       0    3    9    6
 60      1     4       5    8    3    1
 61      1     1       6    0    6    3
 62      1     8       1    5    2    9
 63      1     5       4    4    9    1
 64      1     5       7    7    0    6
 65      1     6       0    6    3    6
 66      1     2       1    2    5    9
 67      1    10       4    8    1    3
 68      1    10       2    0    7    0
 69      1     4       2    5    6    9
 70      1     1       7    0   10    6
 71      1     4       8    0    4    6
 72      1     3       8    0    5    0
 73      1    10       7    2    0    0
 74      1    10       9    4    0   10
 75      1    10       0    2    3    4
 76      1     8       1    0    7    3
 77      1     1       6    0    7    9
 78      1     4       6    0    7    5
 79      1     6       0    6    9    4
 80      1     2       7    0    9    3
 81      1     1       1    6    5    8
 82      1     8       4    0    4    5
 83      1    10       9    6    3    5
 84      1     1       0    5    4    6
 85      1     2       4    9    2    7
 86      1    10       3    9    8    3
 87      1     8       8    4    0    8
 88      1     8       6    8    7    0
 89      1     7       0    8    9    0
 90      1     2       9    1    9    5
 91      1     7       7    8    8    9
 92      1     0       0    0    0    0
************************************************************************
RESOURCEAVAILABILITIES:
  R 1  R 2  R 3  R 4
   16   19   18   18
************************************************************************
